146
0 84 139 18 49 20 106 45 108 86 
72 62 21 116 126 26 4 29 44 15 
104 58 66 87 36 75 24 42 144 40 
33 120 31 71 122 78 135 2 37 100 
60 119 129 38 121 118 59 28 140 65 
53 94 112 97 82 52 128 138 114 39 
143 117 19 141 48 80 54 92 98 91 
115 14 63 134 25 127 133 83 34 50 
74 35 89 1 99 79 46 3 103 57 
56 125 124 12 69 41 107 73 93 81 
64 6 67 90 76 32 96 145 10 137 
51 61 17 13 102 22 105 109 68 7 
113 9 77 16 23 30 5 43 111 85 
55 130 123 8 136 131 47 110 27 142 
70 101 88 95 11 132 
